NAME : amtsp
TYPE : ATSP
DIMENSION : 5
EDGE_WEIGHT_TYPE : EXPLICIT
EDGE_WEIGHT_FORMAT : FULL_MATRIX
EDGE_WEIGHT_SECTION
0 124 200523 201110 201757 
0 0 1099 859 1567 
0 1099 0 339 680 
0 859 339 0 340 
0 1567 680 340 0 
